(set-logic LIA)
(declare-fun _1533 () Int)
(declare-fun _1537 () Int)
(declare-fun _1541 () Int)
(declare-fun _1545 () Int)
(assert (and (and (>= _1545 1)(>= _1541 1)(>= _1537 1)(>= _1533 1)(<= _1545 4)(<= _1541 4)(<= _1537 4)(<= _1533 4)) (distinct _1533 _1537 _1541 _1545) (not (= _1533 (+ _1537 1))) (not (= _1533 (- _1537 1))) (not (= _1533 (+ _1541 2))) (not (= _1533 (- _1541 2))) (not (= _1533 (+ _1545 3))) (not (= _1533 (- _1545 3))) (not (= _1537 (+ _1541 1))) (not (= _1537 (- _1541 1))) (not (= _1537 (+ _1545 2))) (not (= _1537 (- _1545 2))) (not (= _1541 (+ _1545 1))) (not (= _1541 (- _1545 1)))))
(check-sat)
(get-value (_1545 _1541 _1537 _1533 ))
(get-info :all-statistics)
